<number of tasks>
58

<cycle time>
65

<task times>
1 10
2 53
3 41
4 36
5 35
6 17
7 34
8 23
9 14
10 52
11 33
12 34
13 12
14 52
15 12
16 33
17 44
18 7
19 15
20 13
21 29
22 37
23 43
24 23
25 24
26 9
27 16
28 12
29 26
30 22
31 51
32 47
33 34
34 23
35 12
36 52
37 12
38 33
39 44
40 7
41 15
42 13
43 29
44 37
45 43
46 23
47 24
48 9
49 16
50 12
51 26
52 12
53 52
54 12
55 33
56 44
57 7
58 15

<precedence relations>
1,9
2,25
3,21
3,22
4,10
5,36
6,23
6,24
7,43
8,44
9,11
11,13
11,14
11,15
12,17
13,17
14,17
15,17
16,18
17,20
18,19
19,23
20,21
20,25
21,26
21,44
22,27
23,31
24,31
25,38
26,29
27,30
28,32
28,33
29,31
30,34
31,36
32,45
33,35
34,36
35,43
36,37
36,38
37,39
37,40
37,41
38,52
39,43
40,43
41,42
42,43
43,45
44,45
45,46
45,48
45,49
46,47
46,50
47,51
48,55
49,58
50,58
51,52
52,53
53,54
54,55
54,56
55,57
56,57
57,58

<setup times forward>
1,2:4
1,3:2
1,4:1
1,5:1
1,6:3
1,7:1
1,8:5
1,9:2
1,10:2
1,12:1
1,16:6
1,18:2
1,19:1
1,22:5
1,23:2
1,24:2
1,27:7
1,28:1
1,30:1
1,32:4
1,35:7
2,1:4
2,3:6
2,4:3
2,5:3
2,6:7
2,7:5
2,8:9
2,9:2
2,10:6
2,11:10
2,12:5
2,13:3
2,14:1
2,15:11
2,16:10
2,18:6
2,19:3
2,20:1
2,21:1
2,22:9
2,23:2
2,24:6
2,25:7
2,26:9
2,27:11
2,28:3
2,29:10
2,30:5
2,31:1
2,33:4
2,34:4
2,35:11
2,36:3
2,37:10
2,39:6
2,40:9
2,41:10
2,42:11
2,43:4
2,44:5
2,45:6
2,46:2
2,47:8
2,48:9
2,49:6
2,50:2
2,51:4
3,1:2
3,2:6
3,4:3
3,5:3
3,6:1
3,7:1
3,8:3
3,9:4
3,11:4
3,12:1
3,13:3
3,14:5
3,15:5
3,16:4
3,17:6
3,19:3
3,20:5
3,21:5
3,22:3
3,23:4
3,25:1
3,28:3
3,32:6
3,33:2
3,35:5
4,1:1
4,2:3
4,3:3
4,6:4
4,7:2
4,8:6
4,9:1
4,10:3
4,11:7
4,12:2
4,14:2
4,15:8
4,16:7
4,17:3
4,18:3
4,20:2
4,21:2
4,22:6
4,23:1
4,24:3
4,25:4
4,26:6
4,27:8
4,29:7
4,30:2
4,31:2
4,32:3
4,33:1
4,34:1
4,35:8
4,37:7
4,38:3
4,39:3
4,40:6
4,41:7
4,42:8
4,43:1
4,44:2
4,45:3
4,46:1
4,47:5
4,48:6
4,49:3
4,50:1
4,51:1
4,52:6
4,53:1
4,54:7
4,56:2
4,57:4
4,58:8
5,1:1
5,2:3
5,3:3
5,6:4
5,7:2
5,8:6
5,9:1
5,10:3
5,11:7
5,12:2
5,14:2
5,15:8
5,16:7
5,17:3
5,18:3
5,20:2
5,21:2
5,22:6
5,23:1
5,24:3
5,25:4
5,26:6
5,27:8
5,29:7
5,30:2
5,31:2
5,32:3
5,33:1
5,34:1
5,35:8
5,44:2
6,1:3
6,2:7
6,3:1
6,4:4
6,5:4
6,7:2
6,8:2
6,9:5
6,10:1
6,11:3
6,12:2
6,13:4
6,14:6
6,15:4
6,16:3
6,17:7
6,18:1
6,19:4
6,20:6
6,21:6
6,22:2
6,23:5
6,24:1
6,26:2
6,27:4
6,28:4
6,29:3
6,30:2
6,32:7
6,33:3
6,34:3
6,35:4
6,44:2
7,1:1
7,2:5
7,3:1
7,4:2
7,5:2
7,6:2
7,8:4
7,9:3
7,10:1
7,11:5
7,13:2
7,14:4
7,15:6
7,16:5
7,17:5
7,18:1
7,19:2
7,20:4
7,21:4
7,22:4
7,23:3
7,24:1
7,25:2
7,26:4
7,27:6
7,28:2
7,29:5
7,31:4
7,32:5
7,33:1
7,34:1
7,35:6
7,36:2
7,37:5
7,38:5
7,39:1
7,40:4
7,41:5
7,42:6
7,43:1
8,1:5
8,2:9
8,3:3
8,4:6
8,5:6
8,6:2
8,7:4
8,9:7
8,10:3
8,11:1
8,12:4
8,13:6
8,14:8
8,15:2
8,16:1
8,17:9
8,18:3
8,19:6
8,20:8
8,21:8
8,23:7
8,24:3
8,25:2
8,27:2
8,28:6
8,29:1
8,30:4
8,31:8
8,32:9
8,33:5
8,34:5
8,35:2
8,36:6
8,37:1
8,38:9
8,39:3
8,41:1
8,42:2
8,43:5
8,44:4
9,2:2
9,3:4
9,4:1
9,5:1
9,6:5
9,7:3
9,8:7
9,10:4
9,11:8
9,12:3
9,16:8
9,18:4
9,19:1
9,22:7
9,24:4
9,27:9
9,28:1
9,30:3
9,32:2
9,33:2
9,34:2
9,35:9
10,1:2
10,2:6
10,5:3
10,6:1
10,7:1
10,8:3
10,9:4
10,11:4
10,12:1
10,13:3
10,14:5
10,15:5
10,16:4
10,17:6
10,19:3
10,20:5
10,21:5
10,22:3
10,23:4
10,25:1
10,26:3
10,27:5
10,28:3
10,29:4
10,30:1
10,31:5
10,32:6
10,33:2
10,34:2
10,35:5
10,36:3
10,37:4
10,38:6
10,40:3
10,41:4
10,42:5
10,43:2
10,44:1
10,46:4
10,47:2
10,48:3
10,50:4
10,51:2
10,52:3
10,53:2
10,54:4
10,55:3
10,56:5
10,57:1
10,58:5
11,2:10
11,3:4
11,4:7
11,5:7
11,6:3
11,7:5
11,8:1
11,10:4
11,12:5
11,13:7
11,14:9
11,15:1
11,18:4
11,19:7
11,22:1
11,23:8
11,24:4
11,27:1
11,28:7
11,30:5
11,32:10
11,33:6
11,34:6
11,35:1
12,1:1
12,2:5
12,3:1
12,4:2
12,5:2
12,6:2
12,8:4
12,9:3
12,10:1
12,11:5
12,13:2
12,14:4
12,15:6
12,16:5
12,17:5
12,18:1
12,19:2
12,22:4
12,23:3
12,24:1
12,27:6
12,28:2
12,32:5
12,33:1
12,34:1
12,35:6
13,2:3
13,3:3
13,6:4
13,7:2
13,8:6
13,10:3
13,12:2
13,14:2
13,15:8
13,16:7
13,17:3
13,18:3
13,22:6
13,23:1
13,24:3
13,27:8
13,30:2
13,32:3
13,33:1
13,34:1
13,35:8
14,2:1
14,3:5
14,4:2
14,5:2
14,6:6
14,7:4
14,8:8
14,10:5
14,12:4
14,13:2
14,15:10
14,16:9
14,17:1
14,18:5
14,19:2
14,22:8
14,23:1
14,24:5
14,27:10
14,28:2
14,30:4
14,32:1
14,33:3
14,34:3
14,35:10
15,2:11
15,3:5
15,4:8
15,5:8
15,6:4
15,7:6
15,8:2
15,10:5
15,12:6
15,13:8
15,14:10
15,16:1
15,17:11
15,18:5
15,19:8
15,22:2
15,23:9
15,24:5
15,28:8
15,30:6
15,32:11
15,33:7
15,34:7
16,1:6
16,2:10
16,3:4
16,4:7
16,5:7
16,6:3
16,7:5
16,8:1
16,9:8
16,10:4
16,12:5
16,13:7
16,14:9
16,15:1
16,17:10
16,18:4
16,20:9
16,21:9
16,22:1
16,24:4
16,25:3
16,26:1
16,27:1
16,28:7
16,30:5
16,32:10
16,33:6
16,34:6
16,35:1
16,44:5
17,3:6
17,4:3
17,5:3
17,6:7
17,7:5
17,8:9
17,10:6
17,16:10
17,18:6
17,19:3
17,20:1
17,22:9
17,23:2
17,24:6
17,27:11
17,28:3
17,30:5
17,33:4
17,34:4
17,35:11
18,1:2
18,2:6
18,4:3
18,5:3
18,6:1
18,7:1
18,8:3
18,9:4
18,11:4
18,12:1
18,13:3
18,14:5
18,15:5
18,17:6
18,19:3
18,20:5
18,21:5
18,22:3
18,25:1
18,26:3
18,27:5
18,28:3
18,29:4
18,30:1
18,32:6
18,33:2
18,34:2
18,35:5
18,44:1
19,1:1
19,2:3
19,3:3
19,6:4
19,7:2
19,8:6
19,9:1
19,10:3
19,11:7
19,12:2
19,14:2
19,15:8
19,17:3
19,20:2
19,21:2
19,22:6
19,23:1
19,24:3
19,25:4
19,26:6
19,27:8
19,29:7
19,30:2
19,32:3
19,33:1
19,34:1
19,35:8
19,44:2
20,2:1
20,3:5
20,4:2
20,5:2
20,6:6
20,7:4
20,8:8
20,10:5
20,16:9
20,18:5
20,19:2
20,22:8
20,23:1
20,24:5
20,25:6
20,27:10
20,28:2
20,30:4
20,32:1
20,33:3
20,34:3
20,35:10
21,2:1
21,4:2
21,5:2
21,6:6
21,7:4
21,8:8
21,10:5
21,16:9
21,18:5
21,19:2
21,22:8
21,23:1
21,24:5
21,25:6
21,26:8
21,27:10
21,28:2
21,30:4
21,32:1
21,33:3
21,34:3
21,35:10
21,44:4
22,1:5
22,2:9
22,4:6
22,5:6
22,6:2
22,7:4
22,9:7
22,10:3
22,11:1
22,12:4
22,13:6
22,14:8
22,15:2
22,16:1
22,17:9
22,18:3
22,19:6
22,20:8
22,21:8
22,23:7
22,24:3
22,25:2
22,27:2
22,28:6
22,29:1
22,31:8
22,32:9
22,33:5
22,35:2
22,44:4
23,1:2
23,2:2
23,3:4
23,4:1
23,5:1
23,7:3
23,8:7
23,10:4
23,11:8
23,12:3
23,13:1
23,14:1
23,15:9
23,17:2
23,20:1
23,21:1
23,22:7
23,24:4
23,25:5
23,26:7
23,27:9
23,28:1
23,29:8
23,30:3
23,31:1
23,32:2
23,33:2
23,34:2
23,35:9
23,44:3
24,1:2
24,2:6
24,4:3
24,5:3
24,7:1
24,8:3
24,9:4
24,11:4
24,12:1
24,13:3
24,14:5
24,15:5
24,16:4
24,17:6
24,19:3
24,20:5
24,21:5
24,22:3
24,23:4
24,25:1
24,26:3
24,27:5
24,28:3
24,29:4
24,30:1
24,31:5
24,32:6
24,33:2
24,34:2
24,35:5
24,44:1
25,3:1
25,4:4
25,5:4
25,7:2
25,8:2
25,10:1
25,16:3
25,18:1
25,19:4
25,21:6
25,22:2
25,23:5
25,24:1
25,26:2
25,27:4
25,28:4
25,29:3
25,30:2
25,31:6
25,32:7
25,33:3
25,34:3
25,35:4
25,36:4
25,37:3
25,38:7
25,39:1
25,40:2
25,41:3
25,42:4
25,43:3
25,44:2
25,45:1
25,46:5
25,47:1
25,48:2
25,49:1
25,50:5
25,51:3
26,2:9
26,4:6
26,5:6
26,6:2
26,7:4
26,10:3
26,16:1
26,18:3
26,19:6
26,23:7
26,24:3
26,25:2
26,27:2
26,28:6
26,29:1
26,30:4
26,32:9
26,33:5
26,34:5
26,35:2
26,44:4
27,1:7
27,2:11
27,4:8
27,5:8
27,6:4
27,7:6
27,8:2
27,9:9
27,10:5
27,11:1
27,12:6
27,13:8
27,14:10
27,16:1
27,17:11
27,18:5
27,19:8
27,20:10
27,21:10
27,23:9
27,24:5
27,25:4
27,26:2
27,28:8
27,29:1
27,30:6
27,31:10
27,32:11
27,33:7
27,44:6
28,1:1
28,2:3
28,3:3
28,6:4
28,7:2
28,8:6
28,9:1
28,10:3
28,11:7
28,12:2
28,14:2
28,15:8
28,16:7
28,17:3
28,18:3
28,20:2
28,21:2
28,22:6
28,23:1
28,24:3
28,25:4
28,26:6
28,27:8
28,29:7
28,30:2
28,31:2
28,32:3
28,33:1
28,34:1
28,37:7
28,38:3
28,39:3
28,40:6
28,41:7
28,42:8
28,44:2
29,2:10
29,4:7
29,5:7
29,6:3
29,7:5
29,8:1
29,10:4
29,18:4
29,19:7
29,22:1
29,23:8
29,24:4
29,25:3
29,27:1
29,28:7
29,30:5
29,31:9
29,32:10
29,33:6
29,34:6
29,35:1
29,44:5
30,1:1
30,2:5
30,4:2
30,5:2
30,6:2
30,8:4
30,9:3
30,10:1
30,11:5
30,13:2
30,14:4
30,15:6
30,16:5
30,17:5
30,18:1
30,19:2
30,20:4
30,21:4
30,23:3
30,24:1
30,25:2
30,26:4
30,28:2
30,29:5
30,31:4
30,32:5
30,33:1
30,34:1
30,35:6
31,2:1
31,4:2
31,5:2
31,7:4
31,8:8
31,10:5
31,22:8
31,25:6
31,27:10
31,28:2
31,30:4
31,32:1
31,33:3
31,34:3
31,35:10
31,36:2
31,44:4
32,1:4
32,3:6
32,4:3
32,5:3
32,6:7
32,7:5
32,8:9
32,9:2
32,10:6
32,11:10
32,12:5
32,13:3
32,14:1
32,15:11
32,16:10
32,18:6
32,19:3
32,20:1
32,21:1
32,22:9
32,23:2
32,24:6
32,25:7
32,26:9
32,27:11
32,29:10
32,30:5
32,31:1
32,33:4
32,34:4
32,35:11
32,36:3
32,37:10
32,39:6
32,40:9
32,41:10
32,42:11
32,43:4
32,44:5
32,45:6
33,2:4
33,3:2
33,4:1
33,5:1
33,6:3
33,7:1
33,8:5
33,9:2
33,10:2
33,11:6
33,12:1
33,13:1
33,14:3
33,15:7
33,16:6
33,17:4
33,18:2
33,19:1
33,20:3
33,21:3
33,22:5
33,23:2
33,24:2
33,25:3
33,26:5
33,27:7
33,29:6
33,30:1
33,31:3
33,32:4
33,35:7
33,36:1
33,37:6
33,38:4
33,39:2
33,40:5
33,41:6
33,42:7
33,44:1
34,2:4
34,4:1
34,5:1
34,6:3
34,7:1
34,8:5
34,9:2
34,10:2
34,11:6
34,12:1
34,13:1
34,14:3
34,15:7
34,16:6
34,17:4
34,18:2
34,19:1
34,20:3
34,21:3
34,23:2
34,24:2
34,25:3
34,26:5
34,28:1
34,29:6
34,31:3
34,32:4
34,35:7
34,36:1
34,44:1
35,1:7
35,2:11
35,3:5
35,4:8
35,5:8
35,6:4
35,7:6
35,8:2
35,9:9
35,10:5
35,11:1
35,12:6
35,13:8
35,14:10
35,16:1
35,17:11
35,18:5
35,19:8
35,20:10
35,21:10
35,22:2
35,23:9
35,24:5
35,25:4
35,26:2
35,29:1
35,30:6
35,31:10
35,32:11
35,34:7
35,36:8
35,37:1
35,38:11
35,39:5
35,40:2
35,41:1
35,43:7
35,44:6
36,2:3
36,7:2
36,8:6
36,10:3
36,25:4
36,32:3
36,33:1
36,35:8
36,37:7
36,38:3
36,44:2
37,2:10
37,4:7
37,7:5
37,8:1
37,10:4
37,25:3
37,28:7
37,32:10
37,33:6
37,35:1
37,38:10
37,39:4
37,40:1
37,44:5
38,4:3
38,7:5
38,8:9
38,10:6
38,28:3
38,33:4
38,35:11
38,37:10
38,39:6
38,40:9
38,41:10
38,42:11
38,43:4
38,44:5
38,45:6
38,46:2
38,47:8
38,48:9
38,49:6
38,50:2
38,51:4
38,52:9
39,2:6
39,4:3
39,7:1
39,8:3
39,25:1
39,28:3
39,32:6
39,33:2
39,35:5
39,38:6
39,40:3
39,41:4
39,42:5
39,43:2
39,44:1
40,2:9
40,4:6
40,7:4
40,10:3
40,25:2
40,28:6
40,32:9
40,33:5
40,35:2
40,38:9
40,39:3
40,41:1
40,42:2
40,43:5
40,44:4
41,2:10
41,4:7
41,7:5
41,8:1
41,10:4
41,25:3
41,28:7
41,32:10
41,33:6
41,35:1
41,38:10
41,39:4
41,40:1
41,42:1
41,44:5
42,2:11
42,4:8
42,7:6
42,8:2
42,10:5
42,25:4
42,28:8
42,32:11
42,33:7
42,38:11
42,39:5
42,40:2
42,43:7
42,44:6
43,2:4
43,4:1
43,8:5
43,10:2
43,25:3
43,32:4
43,38:4
43,44:1
43,45:2
44,2:5
44,4:2
44,5:2
44,6:2
44,10:1
44,16:5
44,18:1
44,19:2
44,22:4
44,23:3
44,24:1
44,25:2
44,26:4
44,27:6
44,28:2
44,29:5
44,31:4
44,32:5
44,33:1
44,34:1
44,35:6
44,36:2
44,37:5
44,38:5
44,39:1
44,40:4
44,41:5
44,42:6
44,43:1
44,45:1
45,2:6
45,4:3
45,25:1
45,38:6
45,46:4
45,48:3
46,2:2
46,4:1
46,10:4
46,25:5
46,38:2
46,47:6
46,48:7
46,49:4
47,2:8
47,4:5
47,10:2
47,25:1
47,38:8
47,48:1
47,49:2
47,50:6
47,51:4
48,2:9
48,4:6
48,10:3
48,25:2
48,38:9
48,46:7
48,47:1
48,49:3
48,50:7
48,51:5
48,53:5
48,54:1
48,55:6
48,56:8
49,2:6
49,4:3
49,25:1
49,38:6
49,46:4
49,47:2
49,48:3
49,50:4
49,51:2
49,52:3
49,53:2
49,54:4
49,55:3
49,56:5
49,57:1
49,58:5
50,2:2
50,4:1
50,10:4
50,25:5
50,38:2
50,47:6
50,48:7
50,49:4
50,51:2
50,52:7
50,53:2
50,54:8
50,55:1
50,56:1
50,57:5
50,58:9
51,2:4
51,4:1
51,10:2
51,25:3
51,38:4
51,48:5
51,49:2
51,50:2
51,52:5
52,4:6
52,10:3
52,49:3
52,50:7
52,53:5
53,4:1
53,10:2
53,48:5
53,49:2
53,50:2
53,54:6
54,4:7
54,10:4
54,48:1
54,49:4
54,50:8
54,55:7
54,56:9
55,10:3
55,49:3
55,50:1
55,56:2
55,57:4
56,4:2
56,10:5
56,48:8
56,49:5
56,50:1
56,55:2
56,57:6
57,4:4
57,10:1
57,49:1
57,50:5
57,58:4
58,4:8
58,10:5

<setup times backward>
1,1:12
1,2:8
1,3:14
1,4:11
1,5:11
1,6:15
1,7:13
1,8:17
1,10:14
1,12:13
1,16:18
1,18:14
1,19:11
1,22:17
1,23:10
1,24:14
1,27:19
1,28:11
1,30:13
1,32:8
1,33:12
1,34:12
1,35:19
2,1:16
2,2:12
2,3:18
2,4:15
2,5:15
2,6:19
2,7:17
2,8:21
2,9:14
2,10:18
2,11:22
2,12:17
2,13:15
2,14:13
2,15:23
2,16:22
2,17:12
2,18:18
2,19:15
2,20:13
2,21:13
2,22:21
2,23:14
2,24:18
2,26:21
2,27:23
2,28:15
2,29:22
2,30:17
2,31:13
2,32:12
2,33:16
2,34:16
2,35:23
2,36:15
2,37:22
2,39:18
2,40:21
2,41:22
2,42:23
2,43:16
2,44:17
2,45:18
2,46:14
2,47:20
2,48:21
2,49:18
2,50:14
2,51:16
3,1:10
3,2:6
3,3:12
3,4:9
3,5:9
3,6:13
3,7:11
3,8:15
3,9:8
3,10:12
3,11:16
3,12:11
3,13:9
3,14:7
3,15:17
3,16:16
3,17:6
3,18:12
3,19:9
3,20:7
3,23:8
3,24:12
3,25:13
3,28:9
3,32:6
3,33:10
3,35:17
4,1:13
4,2:9
4,3:15
4,4:12
4,5:12
4,6:16
4,7:14
4,8:18
4,9:11
4,11:19
4,12:14
4,13:12
4,14:10
4,15:20
4,16:19
4,17:9
4,18:15
4,19:12
4,20:10
4,21:10
4,22:18
4,23:11
4,24:15
4,25:16
4,26:18
4,27:20
4,28:12
4,29:19
4,30:14
4,31:10
4,32:9
4,33:13
4,34:13
4,35:20
4,36:12
4,37:19
4,38:9
4,39:15
4,40:18
4,41:19
4,42:20
4,43:13
4,44:14
4,45:15
4,46:11
4,47:17
4,48:18
4,49:15
4,50:11
4,51:13
4,52:18
4,53:13
4,54:19
4,55:12
4,56:10
4,57:16
4,58:20
5,1:13
5,2:9
5,3:15
5,4:12
5,5:12
5,6:16
5,7:14
5,8:18
5,9:11
5,10:15
5,11:19
5,12:14
5,13:12
5,14:10
5,15:20
5,16:19
5,17:9
5,18:15
5,19:12
5,20:10
5,21:10
5,22:18
5,23:11
5,24:15
5,25:16
5,26:18
5,27:20
5,28:12
5,29:19
5,30:14
5,31:10
5,32:9
5,33:13
5,34:13
5,35:20
5,44:14
6,1:9
6,2:5
6,3:11
6,4:8
6,5:8
6,6:12
6,7:10
6,8:14
6,9:7
6,10:11
6,11:15
6,12:10
6,13:8
6,14:6
6,15:16
6,16:15
6,17:5
6,18:11
6,19:8
6,20:6
6,21:6
6,22:14
6,25:12
6,26:14
6,27:16
6,28:8
6,29:15
6,30:10
6,32:5
6,33:9
6,34:9
6,35:16
6,44:10
7,1:11
7,2:7
7,3:13
7,4:10
7,5:10
7,6:14
7,7:12
7,8:16
7,9:9
7,10:13
7,11:17
7,12:12
7,13:10
7,14:8
7,15:18
7,16:17
7,17:7
7,18:13
7,19:10
7,20:8
7,21:8
7,22:16
7,23:9
7,24:13
7,25:14
7,26:16
7,27:18
7,28:10
7,29:17
7,30:12
7,31:8
7,32:7
7,33:11
7,34:11
7,35:18
7,36:10
7,37:17
7,38:7
7,39:13
7,40:16
7,41:17
7,42:18
7,44:12
8,1:7
8,2:3
8,3:9
8,4:6
8,5:6
8,6:10
8,7:8
8,8:12
8,9:5
8,10:9
8,11:13
8,12:8
8,13:6
8,14:4
8,15:14
8,16:13
8,17:3
8,18:9
8,19:6
8,20:4
8,21:4
8,22:12
8,23:5
8,24:9
8,25:10
8,26:12
8,27:14
8,28:6
8,29:13
8,30:8
8,31:4
8,32:3
8,33:7
8,34:7
8,35:14
8,36:6
8,37:13
8,38:3
8,39:9
8,40:12
8,41:13
8,42:14
8,43:7
9,1:14
9,2:10
9,3:16
9,4:13
9,5:13
9,6:17
9,7:15
9,8:19
9,9:12
9,10:16
9,12:15
9,16:20
9,18:16
9,19:13
9,22:19
9,23:12
9,24:16
9,27:21
9,28:13
9,30:15
9,32:10
9,33:14
9,34:14
9,35:21
10,1:10
10,2:6
10,3:12
10,4:9
10,5:9
10,6:13
10,7:11
10,8:15
10,9:8
10,10:12
10,11:16
10,12:11
10,13:9
10,14:7
10,15:17
10,16:16
10,17:6
10,18:12
10,19:9
10,20:7
10,21:7
10,22:15
10,23:8
10,24:12
10,25:13
10,26:15
10,27:17
10,28:9
10,29:16
10,30:11
10,31:7
10,32:6
10,33:10
10,34:10
10,35:17
10,36:9
10,37:16
10,38:6
10,39:12
10,40:15
10,41:16
10,42:17
10,43:10
10,44:11
10,45:12
10,46:8
10,47:14
10,48:15
10,49:12
10,50:8
10,51:10
10,52:15
10,53:10
10,54:16
10,55:9
10,56:7
10,57:13
10,58:17
11,1:6
11,2:2
11,3:8
11,4:5
11,5:5
11,6:9
11,7:7
11,8:11
11,9:4
11,10:8
11,11:12
11,12:7
11,16:12
11,18:8
11,19:5
11,22:11
11,23:4
11,24:8
11,27:13
11,28:5
11,30:7
11,32:2
11,33:6
11,34:6
11,35:13
12,1:11
12,2:7
12,3:13
12,4:10
12,5:10
12,6:14
12,7:12
12,8:16
12,9:9
12,10:13
12,11:17
12,12:12
12,13:10
12,14:8
12,15:18
12,16:17
12,18:13
12,19:10
12,22:16
12,23:9
12,24:13
12,27:18
12,28:10
12,30:12
12,32:7
12,33:11
12,34:11
12,35:18
13,1:13
13,2:9
13,3:15
13,4:12
13,5:12
13,6:16
13,7:14
13,8:18
13,9:11
13,10:15
13,11:19
13,12:14
13,13:12
13,14:10
13,15:20
13,16:19
13,18:15
13,19:12
13,22:18
13,23:11
13,24:15
13,27:20
13,28:12
13,30:14
13,32:9
13,33:13
13,34:13
13,35:20
14,1:15
14,2:11
14,3:17
14,4:14
14,5:14
14,6:18
14,7:16
14,8:20
14,9:13
14,10:17
14,11:21
14,12:16
14,13:14
14,14:12
14,15:22
14,16:21
14,18:17
14,19:14
14,22:20
14,23:13
14,24:17
14,27:22
14,28:14
14,30:16
14,32:11
14,33:15
14,34:15
14,35:22
15,1:5
15,2:1
15,3:7
15,4:4
15,5:4
15,6:8
15,7:6
15,8:10
15,9:3
15,10:7
15,11:11
15,12:6
15,13:4
15,14:2
15,15:12
15,16:11
15,18:7
15,19:4
15,22:10
15,23:3
15,24:7
15,27:12
15,28:4
15,30:6
15,32:1
15,33:5
15,34:5
15,35:12
16,1:6
16,2:2
16,3:8
16,4:5
16,5:5
16,6:9
16,7:7
16,8:11
16,9:4
16,10:8
16,11:12
16,12:7
16,13:5
16,14:3
16,15:13
16,16:12
16,17:2
16,20:3
16,21:3
16,22:11
16,24:8
16,25:9
16,26:11
16,27:13
16,28:5
16,29:12
16,30:7
16,32:2
16,33:6
16,34:6
16,35:13
16,44:7
17,1:16
17,2:12
17,3:18
17,4:15
17,5:15
17,6:19
17,7:17
17,8:21
17,9:14
17,10:18
17,11:22
17,12:17
17,13:15
17,14:13
17,15:23
17,16:22
17,17:12
17,18:18
17,19:15
17,22:21
17,23:14
17,24:18
17,27:23
17,28:15
17,30:17
17,32:12
17,33:16
17,34:16
17,35:23
18,1:10
18,2:6
18,3:12
18,4:9
18,5:9
18,6:13
18,7:11
18,8:15
18,9:8
18,10:12
18,11:16
18,12:11
18,13:9
18,14:7
18,15:17
18,16:16
18,17:6
18,18:12
18,20:7
18,21:7
18,22:15
18,24:12
18,25:13
18,26:15
18,27:17
18,28:9
18,29:16
18,30:11
18,32:6
18,33:10
18,34:10
18,35:17
18,44:11
19,1:13
19,2:9
19,3:15
19,4:12
19,5:12
19,6:16
19,7:14
19,8:18
19,9:11
19,10:15
19,11:19
19,12:14
19,13:12
19,14:10
19,15:20
19,16:19
19,17:9
19,18:15
19,19:12
19,20:10
19,21:10
19,22:18
19,24:15
19,25:16
19,26:18
19,27:20
19,28:12
19,29:19
19,30:14
19,32:9
19,33:13
19,34:13
19,35:20
19,44:14
20,1:15
20,2:11
20,3:17
20,4:14
20,5:14
20,6:18
20,7:16
20,8:20
20,9:13
20,10:17
20,11:21
20,12:16
20,13:14
20,14:12
20,15:22
20,16:21
20,17:11
20,18:17
20,19:14
20,20:12
20,22:20
20,23:13
20,24:17
20,27:22
20,28:14
20,30:16
20,32:11
20,33:15
20,34:15
20,35:22
21,1:15
21,2:11
21,3:17
21,4:14
21,5:14
21,6:18
21,7:16
21,8:20
21,9:13
21,10:17
21,11:21
21,12:16
21,13:14
21,14:12
21,15:22
21,16:21
21,17:11
21,18:17
21,19:14
21,20:12
21,21:12
21,22:20
21,23:13
21,24:17
21,25:18
21,27:22
21,28:14
21,30:16
21,32:11
21,33:15
21,34:15
21,35:22
22,1:7
22,2:3
22,3:9
22,4:6
22,5:6
22,6:10
22,7:8
22,8:12
22,9:5
22,10:9
22,11:13
22,12:8
22,13:6
22,14:4
22,15:14
22,16:13
22,17:3
22,18:9
22,19:6
22,20:4
22,21:4
22,22:12
22,23:5
22,24:9
22,25:10
22,26:12
22,28:6
22,29:13
22,31:4
22,32:3
22,33:7
22,35:14
22,44:8
23,1:14
23,2:10
23,3:16
23,4:13
23,5:13
23,6:17
23,7:15
23,8:19
23,9:12
23,10:16
23,11:20
23,12:15
23,13:13
23,14:11
23,15:21
23,16:20
23,17:10
23,18:16
23,19:13
23,20:11
23,21:11
23,22:19
23,23:12
23,24:16
23,25:17
23,26:19
23,27:21
23,28:13
23,29:20
23,30:15
23,32:10
23,33:14
23,34:14
23,35:21
23,44:15
24,1:10
24,2:6
24,3:12
24,4:9
24,5:9
24,6:13
24,7:11
24,8:15
24,9:8
24,10:12
24,11:16
24,12:11
24,13:9
24,14:7
24,15:17
24,16:16
24,17:6
24,18:12
24,19:9
24,20:7
24,21:7
24,22:15
24,23:8
24,24:12
24,25:13
24,26:15
24,27:17
24,28:9
24,29:16
24,30:11
24,32:6
24,33:10
24,34:10
24,35:17
24,44:11
25,1:9
25,2:5
25,3:11
25,4:8
25,5:8
25,6:12
25,7:10
25,8:14
25,9:7
25,10:11
25,11:15
25,12:10
25,13:8
25,14:6
25,15:16
25,16:15
25,17:5
25,18:11
25,19:8
25,20:6
25,21:6
25,22:14
25,23:7
25,24:11
25,25:12
25,26:14
25,27:16
25,28:8
25,29:15
25,30:10
25,31:6
25,32:5
25,33:9
25,34:9
25,35:16
25,36:8
25,37:15
25,39:11
25,40:14
25,41:15
25,42:16
25,43:9
25,44:10
25,45:11
25,46:7
25,47:13
25,48:14
25,49:11
25,50:7
25,51:9
26,1:7
26,2:3
26,3:9
26,4:6
26,5:6
26,6:10
26,7:8
26,8:12
26,9:5
26,10:9
26,11:13
26,12:8
26,13:6
26,14:4
26,15:14
26,16:13
26,17:3
26,18:9
26,19:6
26,20:4
26,21:4
26,22:12
26,23:5
26,24:9
26,25:10
26,26:12
26,27:14
26,28:6
26,30:8
26,32:3
26,33:7
26,34:7
26,35:14
26,44:8
27,1:5
27,2:1
27,3:7
27,4:4
27,5:4
27,6:8
27,7:6
27,8:10
27,9:3
27,10:7
27,11:11
27,12:6
27,13:4
27,14:2
27,15:12
27,16:11
27,17:1
27,18:7
27,19:4
27,20:2
27,21:2
27,22:10
27,23:3
27,24:7
27,25:8
27,26:10
27,27:12
27,28:4
27,29:11
27,31:2
27,32:1
27,33:5
27,35:12
27,44:6
28,1:13
28,2:9
28,3:15
28,4:12
28,5:12
28,6:16
28,7:14
28,8:18
28,9:11
28,10:15
28,11:19
28,12:14
28,13:12
28,14:10
28,15:20
28,16:19
28,17:9
28,18:15
28,19:12
28,20:10
28,21:10
28,22:18
28,23:11
28,24:15
28,25:16
28,26:18
28,27:20
28,28:12
28,29:19
28,30:14
28,31:10
28,34:13
28,36:12
28,37:19
28,38:9
28,39:15
28,40:18
28,41:19
28,42:20
28,44:14
29,1:6
29,2:2
29,3:8
29,4:5
29,5:5
29,6:9
29,7:7
29,8:11
29,9:4
29,10:8
29,11:12
29,12:7
29,13:5
29,14:3
29,15:13
29,16:12
29,17:2
29,18:8
29,19:5
29,20:3
29,21:3
29,22:11
29,23:4
29,24:8
29,25:9
29,26:11
29,27:13
29,28:5
29,29:12
29,30:7
29,32:2
29,33:6
29,34:6
29,35:13
29,44:7
30,1:11
30,2:7
30,3:13
30,4:10
30,5:10
30,6:14
30,7:12
30,8:16
30,9:9
30,10:13
30,11:17
30,12:12
30,13:10
30,14:8
30,15:18
30,16:17
30,17:7
30,18:13
30,19:10
30,20:8
30,21:8
30,22:16
30,23:9
30,24:13
30,25:14
30,26:16
30,27:18
30,28:10
30,29:17
30,30:12
30,31:8
30,32:7
30,33:11
30,35:18
30,44:12
31,1:15
31,2:11
31,3:17
31,4:14
31,5:14
31,6:18
31,7:16
31,8:20
31,9:13
31,10:17
31,11:21
31,12:16
31,13:14
31,14:12
31,15:22
31,16:21
31,17:11
31,18:17
31,19:14
31,20:12
31,21:12
31,22:20
31,23:13
31,24:17
31,25:18
31,26:20
31,27:22
31,28:14
31,29:21
31,30:16
31,31:12
31,32:11
31,33:15
31,34:15
31,35:22
31,44:16
32,1:16
32,2:12
32,3:18
32,4:15
32,5:15
32,6:19
32,7:17
32,8:21
32,9:14
32,10:18
32,11:22
32,12:17
32,13:15
32,14:13
32,15:23
32,16:22
32,17:12
32,18:18
32,19:15
32,20:13
32,21:13
32,22:21
32,23:14
32,24:18
32,25:19
32,26:21
32,27:23
32,28:15
32,29:22
32,30:17
32,31:13
32,32:12
32,33:16
32,34:16
32,35:23
32,36:15
32,37:22
32,38:12
32,39:18
32,40:21
32,41:22
32,42:23
32,43:16
32,44:17
33,1:12
33,2:8
33,3:14
33,4:11
33,5:11
33,6:15
33,7:13
33,8:17
33,9:10
33,10:14
33,11:18
33,12:13
33,13:11
33,14:9
33,15:19
33,16:18
33,17:8
33,18:14
33,19:11
33,20:9
33,21:9
33,22:17
33,23:10
33,24:14
33,25:15
33,26:17
33,27:19
33,28:11
33,29:18
33,30:13
33,31:9
33,32:8
33,33:12
33,34:12
33,36:11
33,37:18
33,38:8
33,39:14
33,40:17
33,41:18
33,42:19
33,44:13
34,1:12
34,2:8
34,3:14
34,4:11
34,5:11
34,6:15
34,7:13
34,8:17
34,9:10
34,10:14
34,11:18
34,12:13
34,13:11
34,14:9
34,15:19
34,16:18
34,17:8
34,18:14
34,19:11
34,20:9
34,21:9
34,22:17
34,23:10
34,24:14
34,25:15
34,26:17
34,27:19
34,28:11
34,29:18
34,30:13
34,31:9
34,32:8
34,33:12
34,34:12
34,35:19
34,44:13
35,1:5
35,2:1
35,3:7
35,4:4
35,5:4
35,6:8
35,7:6
35,8:10
35,9:3
35,10:7
35,11:11
35,12:6
35,13:4
35,14:2
35,15:12
35,16:11
35,17:1
35,18:7
35,19:4
35,20:2
35,21:2
35,22:10
35,23:3
35,24:7
35,25:8
35,26:10
35,27:12
35,28:4
35,29:11
35,30:6
35,31:2
35,32:1
35,33:5
35,34:5
35,35:12
35,36:4
35,37:11
35,38:1
35,39:7
35,40:10
35,41:11
35,42:12
35,44:6
36,1:13
36,2:9
36,3:15
36,4:12
36,5:12
36,6:16
36,7:14
36,8:18
36,9:11
36,10:15
36,11:19
36,12:14
36,13:12
36,14:10
36,15:20
36,16:19
36,17:9
36,18:15
36,19:12
36,20:10
36,21:10
36,22:18
36,23:11
36,24:15
36,25:16
36,26:18
36,27:20
36,28:12
36,29:19
36,30:14
36,31:10
36,32:9
36,33:13
36,34:13
36,35:20
36,36:12
36,44:14
37,1:6
37,2:2
37,3:8
37,4:5
37,5:5
37,6:9
37,7:7
37,8:11
37,9:4
37,10:8
37,11:12
37,12:7
37,13:5
37,14:3
37,15:13
37,16:12
37,17:2
37,18:8
37,19:5
37,20:3
37,21:3
37,22:11
37,23:4
37,24:8
37,25:9
37,26:11
37,27:13
37,28:5
37,29:12
37,30:7
37,31:3
37,32:2
37,33:6
37,34:6
37,35:13
37,36:5
37,37:12
37,38:2
37,44:7
38,1:16
38,2:12
38,3:18
38,4:15
38,5:15
38,6:19
38,7:17
38,8:21
38,9:14
38,10:18
38,11:22
38,12:17
38,13:15
38,14:13
38,15:23
38,16:22
38,17:12
38,18:18
38,19:15
38,20:13
38,21:13
38,22:21
38,23:14
38,24:18
38,25:19
38,26:21
38,27:23
38,28:15
38,29:22
38,30:17
38,31:13
38,32:12
38,33:16
38,34:16
38,35:23
38,36:15
38,37:22
38,38:12
38,39:18
38,40:21
38,41:22
38,42:23
38,43:16
38,44:17
38,45:18
38,46:14
38,47:20
38,48:21
38,49:18
38,50:14
38,51:16
39,1:10
39,2:6
39,3:12
39,4:9
39,5:9
39,6:13
39,7:11
39,8:15
39,9:8
39,10:12
39,11:16
39,12:11
39,13:9
39,14:7
39,15:17
39,16:16
39,17:6
39,18:12
39,19:9
39,20:7
39,21:7
39,22:15
39,23:8
39,24:12
39,25:13
39,26:15
39,27:17
39,28:9
39,29:16
39,30:11
39,31:7
39,32:6
39,33:10
39,34:10
39,35:17
39,36:9
39,37:16
39,38:6
39,39:12
39,40:15
39,41:16
39,42:17
39,44:11
40,1:7
40,2:3
40,3:9
40,4:6
40,5:6
40,6:10
40,7:8
40,8:12
40,9:5
40,10:9
40,11:13
40,12:8
40,13:6
40,14:4
40,15:14
40,16:13
40,17:3
40,18:9
40,19:6
40,20:4
40,21:4
40,22:12
40,23:5
40,24:9
40,25:10
40,26:12
40,27:14
40,28:6
40,29:13
40,30:8
40,31:4
40,32:3
40,33:7
40,34:7
40,35:14
40,36:6
40,37:13
40,38:3
40,39:9
40,40:12
40,41:13
40,42:14
40,44:8
41,1:6
41,2:2
41,3:8
41,4:5
41,5:5
41,6:9
41,7:7
41,8:11
41,9:4
41,10:8
41,11:12
41,12:7
41,13:5
41,14:3
41,15:13
41,16:12
41,17:2
41,18:8
41,19:5
41,20:3
41,21:3
41,22:11
41,23:4
41,24:8
41,25:9
41,26:11
41,27:13
41,28:5
41,29:12
41,30:7
41,31:3
41,32:2
41,33:6
41,34:6
41,35:13
41,36:5
41,37:12
41,38:2
41,39:8
41,40:11
41,41:12
41,44:7
42,1:5
42,2:1
42,3:7
42,4:4
42,5:4
42,6:8
42,7:6
42,8:10
42,9:3
42,10:7
42,11:11
42,12:6
42,13:4
42,14:2
42,15:12
42,16:11
42,17:1
42,18:7
42,19:4
42,20:2
42,21:2
42,22:10
42,23:3
42,24:7
42,25:8
42,26:10
42,27:12
42,28:4
42,29:11
42,30:6
42,31:2
42,32:1
42,33:5
42,34:5
42,35:12
42,36:4
42,37:11
42,38:1
42,39:7
42,40:10
42,41:11
42,42:12
42,44:6
43,1:12
43,2:8
43,3:14
43,4:11
43,5:11
43,6:15
43,7:13
43,8:17
43,9:10
43,10:14
43,11:18
43,12:13
43,13:11
43,14:9
43,15:19
43,16:18
43,17:8
43,18:14
43,19:11
43,20:9
43,21:9
43,22:17
43,23:10
43,24:14
43,25:15
43,26:17
43,27:19
43,28:11
43,29:18
43,30:13
43,31:9
43,32:8
43,33:12
43,34:12
43,35:19
43,36:11
43,37:18
43,38:8
43,39:14
43,40:17
43,41:18
43,42:19
43,43:12
43,44:13
44,1:11
44,2:7
44,3:13
44,4:10
44,5:10
44,6:14
44,7:12
44,8:16
44,9:9
44,10:13
44,11:17
44,12:12
44,13:10
44,14:8
44,15:18
44,16:17
44,17:7
44,18:13
44,19:10
44,20:8
44,21:8
44,22:16
44,23:9
44,24:13
44,25:14
44,26:16
44,27:18
44,28:10
44,29:17
44,30:12
44,31:8
44,32:7
44,33:11
44,34:11
44,35:18
44,36:10
44,37:17
44,38:7
44,39:13
44,40:16
44,41:17
44,42:18
44,43:11
44,44:12
45,1:10
45,2:6
45,3:12
45,4:9
45,5:9
45,6:13
45,7:11
45,8:15
45,9:8
45,10:12
45,11:16
45,12:11
45,13:9
45,14:7
45,15:17
45,16:16
45,17:6
45,18:12
45,19:9
45,20:7
45,21:7
45,22:15
45,23:8
45,24:12
45,25:13
45,26:15
45,27:17
45,28:9
45,29:16
45,30:11
45,31:7
45,32:6
45,33:10
45,34:10
45,35:17
45,36:9
45,37:16
45,38:6
45,39:12
45,40:15
45,41:16
45,42:17
45,43:10
45,44:11
45,45:12
46,1:14
46,2:10
46,3:16
46,4:13
46,5:13
46,6:17
46,7:15
46,8:19
46,9:12
46,10:16
46,11:20
46,12:15
46,13:13
46,14:11
46,15:21
46,16:20
46,17:10
46,18:16
46,19:13
46,20:11
46,21:11
46,22:19
46,23:12
46,24:16
46,25:17
46,26:19
46,27:21
46,28:13
46,29:20
46,30:15
46,31:11
46,32:10
46,33:14
46,34:14
46,35:21
46,36:13
46,37:20
46,38:10
46,39:16
46,40:19
46,41:20
46,42:21
46,43:14
46,44:15
46,45:16
46,46:12
46,48:19
46,49:16
47,1:8
47,2:4
47,3:10
47,4:7
47,5:7
47,6:11
47,7:9
47,8:13
47,9:6
47,10:10
47,11:14
47,12:9
47,13:7
47,14:5
47,15:15
47,16:14
47,17:4
47,18:10
47,19:7
47,20:5
47,21:5
47,22:13
47,23:6
47,24:10
47,25:11
47,26:13
47,27:15
47,28:7
47,29:14
47,30:9
47,31:5
47,32:4
47,33:8
47,34:8
47,35:15
47,36:7
47,37:14
47,38:4
47,39:10
47,40:13
47,41:14
47,42:15
47,43:8
47,44:9
47,45:10
47,46:6
47,47:12
47,48:13
47,49:10
47,50:6
48,1:7
48,2:3
48,3:9
48,4:6
48,5:6
48,6:10
48,7:8
48,8:12
48,9:5
48,10:9
48,11:13
48,12:8
48,13:6
48,14:4
48,15:14
48,16:13
48,17:3
48,18:9
48,19:6
48,20:4
48,21:4
48,22:12
48,23:5
48,24:9
48,25:10
48,26:12
48,27:14
48,28:6
48,29:13
48,30:8
48,31:4
48,32:3
48,33:7
48,34:7
48,35:14
48,36:6
48,37:13
48,38:3
48,39:9
48,40:12
48,41:13
48,42:14
48,43:7
48,44:8
48,45:9
48,46:5
48,47:11
48,48:12
48,49:9
48,50:5
48,51:7
48,52:12
48,53:7
48,54:13
48,56:4
49,1:10
49,2:6
49,3:12
49,4:9
49,5:9
49,6:13
49,7:11
49,8:15
49,9:8
49,10:12
49,11:16
49,12:11
49,13:9
49,14:7
49,15:17
49,16:16
49,17:6
49,18:12
49,19:9
49,20:7
49,21:7
49,22:15
49,23:8
49,24:12
49,25:13
49,26:15
49,27:17
49,28:9
49,29:16
49,30:11
49,31:7
49,32:6
49,33:10
49,34:10
49,35:17
49,36:9
49,37:16
49,38:6
49,39:12
49,40:15
49,41:16
49,42:17
49,43:10
49,44:11
49,45:12
49,46:8
49,47:14
49,48:15
49,49:12
49,50:8
49,51:10
49,52:15
49,53:10
49,54:16
49,55:9
49,56:7
49,57:13
50,1:14
50,2:10
50,3:16
50,4:13
50,5:13
50,6:17
50,7:15
50,8:19
50,9:12
50,10:16
50,11:20
50,12:15
50,13:13
50,14:11
50,15:21
50,16:20
50,17:10
50,18:16
50,19:13
50,20:11
50,21:11
50,22:19
50,23:12
50,24:16
50,25:17
50,26:19
50,27:21
50,28:13
50,29:20
50,30:15
50,31:11
50,32:10
50,33:14
50,34:14
50,35:21
50,36:13
50,37:20
50,38:10
50,39:16
50,40:19
50,41:20
50,42:21
50,43:14
50,44:15
50,45:16
50,46:12
50,47:18
50,48:19
50,49:16
50,50:12
50,51:14
50,52:19
50,53:14
50,54:20
50,55:13
50,56:11
50,57:17
51,1:12
51,2:8
51,3:14
51,4:11
51,5:11
51,6:15
51,7:13
51,8:17
51,9:10
51,10:14
51,11:18
51,12:13
51,13:11
51,14:9
51,15:19
51,16:18
51,17:8
51,18:14
51,19:11
51,20:9
51,21:9
51,22:17
51,23:10
51,24:14
51,25:15
51,26:17
51,27:19
51,28:11
51,29:18
51,30:13
51,31:9
51,32:8
51,33:12
51,34:12
51,35:19
51,36:11
51,37:18
51,38:8
51,39:14
51,40:17
51,41:18
51,42:19
51,43:12
51,44:13
51,45:14
51,46:10
51,47:16
51,48:17
51,49:14
51,50:10
51,51:12
52,1:7
52,2:3
52,3:9
52,4:6
52,5:6
52,6:10
52,7:8
52,8:12
52,9:5
52,10:9
52,11:13
52,12:8
52,13:6
52,14:4
52,15:14
52,16:13
52,17:3
52,18:9
52,19:6
52,20:4
52,21:4
52,22:12
52,23:5
52,24:9
52,25:10
52,26:12
52,27:14
52,28:6
52,29:13
52,30:8
52,31:4
52,32:3
52,33:7
52,34:7
52,35:14
52,36:6
52,37:13
52,38:3
52,39:9
52,40:12
52,41:13
52,42:14
52,43:7
52,44:8
52,45:9
52,46:5
52,47:11
52,48:12
52,49:9
52,50:5
52,51:7
52,52:12
53,1:12
53,2:8
53,3:14
53,4:11
53,5:11
53,6:15
53,7:13
53,8:17
53,9:10
53,10:14
53,11:18
53,12:13
53,13:11
53,14:9
53,15:19
53,16:18
53,17:8
53,18:14
53,19:11
53,20:9
53,21:9
53,22:17
53,23:10
53,24:14
53,25:15
53,26:17
53,27:19
53,28:11
53,29:18
53,30:13
53,31:9
53,32:8
53,33:12
53,34:12
53,35:19
53,36:11
53,37:18
53,38:8
53,39:14
53,40:17
53,41:18
53,42:19
53,43:12
53,44:13
53,45:14
53,46:10
53,47:16
53,48:17
53,49:14
53,50:10
53,51:12
53,52:17
53,53:12
54,1:6
54,2:2
54,3:8
54,4:5
54,5:5
54,6:9
54,7:7
54,8:11
54,9:4
54,10:8
54,11:12
54,12:7
54,13:5
54,14:3
54,15:13
54,16:12
54,17:2
54,18:8
54,19:5
54,20:3
54,21:3
54,22:11
54,23:4
54,24:8
54,25:9
54,26:11
54,27:13
54,28:5
54,29:12
54,30:7
54,31:3
54,32:2
54,33:6
54,34:6
54,35:13
54,36:5
54,37:12
54,38:2
54,39:8
54,40:11
54,41:12
54,42:13
54,43:6
54,44:7
54,45:8
54,46:4
54,47:10
54,48:11
54,49:8
54,50:4
54,51:6
54,52:11
54,53:6
54,54:12
55,1:13
55,2:9
55,3:15
55,4:12
55,5:12
55,6:16
55,7:14
55,8:18
55,9:11
55,10:15
55,11:19
55,12:14
55,13:12
55,14:10
55,15:20
55,16:19
55,17:9
55,18:15
55,19:12
55,20:10
55,21:10
55,22:18
55,23:11
55,24:15
55,25:16
55,26:18
55,27:20
55,28:12
55,29:19
55,30:14
55,31:10
55,32:9
55,33:13
55,34:13
55,35:20
55,36:12
55,37:19
55,38:9
55,39:15
55,40:18
55,41:19
55,42:20
55,43:13
55,44:14
55,45:15
55,46:11
55,47:17
55,48:18
55,49:15
55,50:11
55,51:13
55,52:18
55,53:13
55,54:19
55,55:12
55,56:10
56,1:15
56,2:11
56,3:17
56,4:14
56,5:14
56,6:18
56,7:16
56,8:20
56,9:13
56,10:17
56,11:21
56,12:16
56,13:14
56,14:12
56,15:22
56,16:21
56,17:11
56,18:17
56,19:14
56,20:12
56,21:12
56,22:20
56,23:13
56,24:17
56,25:18
56,26:20
56,27:22
56,28:14
56,29:21
56,30:16
56,31:12
56,32:11
56,33:15
56,34:15
56,35:22
56,36:14
56,37:21
56,38:11
56,39:17
56,40:20
56,41:21
56,42:22
56,43:15
56,44:16
56,45:17
56,46:13
56,47:19
56,48:20
56,49:17
56,50:13
56,51:15
56,52:20
56,53:15
56,54:21
56,55:14
56,56:12
57,1:9
57,2:5
57,3:11
57,4:8
57,5:8
57,6:12
57,7:10
57,8:14
57,9:7
57,10:11
57,11:15
57,12:10
57,13:8
57,14:6
57,15:16
57,16:15
57,17:5
57,18:11
57,19:8
57,20:6
57,21:6
57,22:14
57,23:7
57,24:11
57,25:12
57,26:14
57,27:16
57,28:8
57,29:15
57,30:10
57,31:6
57,32:5
57,33:9
57,34:9
57,35:16
57,36:8
57,37:15
57,38:5
57,39:11
57,40:14
57,41:15
57,42:16
57,43:9
57,44:10
57,45:11
57,46:7
57,47:13
57,48:14
57,49:11
57,50:7
57,51:9
57,52:14
57,53:9
57,54:15
57,55:8
57,56:6
57,57:12
58,1:5
58,2:1
58,3:7
58,4:4
58,5:4
58,6:8
58,7:6
58,8:10
58,9:3
58,10:7
58,11:11
58,12:6
58,13:4
58,14:2
58,15:12
58,16:11
58,17:1
58,18:7
58,19:4
58,20:2
58,21:2
58,22:10
58,23:3
58,24:7
58,25:8
58,26:10
58,27:12
58,28:4
58,29:11
58,30:6
58,31:2
58,32:1
58,33:5
58,34:5
58,35:12
58,36:4
58,37:11
58,38:1
58,39:7
58,40:10
58,41:11
58,42:12
58,43:5
58,44:6
58,45:7
58,46:3
58,47:9
58,48:10
58,49:7
58,50:3
58,51:5
58,52:10
58,53:5
58,54:11
58,55:4
58,56:2
58,57:8
58,58:12

<end>

<optimal SALBP-1 value>
25


<rand seed>
467321153

<Lower Bounds>
Lm1=24
Lms1=24
Lm2=24
Lm3=23
Lm4=24
Best=24

<Optimal Stations (Iterations: 10)>
38
